<number of tasks>
100

<cycle time>
1000

<order strength>
0.596


<task times>
1 388
2 512
3 439
4 490
5 395
6 496
7 420
8 454
9 509
10 610
11 340
12 384
13 207
14 663
15 486
16 527
17 536
18 410
19 382
20 206
21 567
22 431
23 462
24 402
25 653
26 565
27 338
28 307
29 249
30 159
31 602
32 372
33 402
34 558
35 421
36 587
37 642
38 533
39 258
40 485
41 514
42 161
43 485
44 596
45 249
46 592
47 330
48 705
49 337
50 286
51 464
52 653
53 342
54 453
55 704
56 633
57 581
58 551
59 578
60 338
61 375
62 430
63 466
64 486
65 450
66 306
67 336
68 186
69 584
70 584
71 541
72 260
73 553
74 547
75 661
76 694
77 423
78 463
79 389
80 485
81 505
82 394
83 496
84 400
85 374
86 499
87 473
88 573
89 327
90 391
91 495
92 551
93 444
94 399
95 379
96 510
97 408
98 487
99 725
100 564

<precedence relations>
1,41
2,41
3,58
4,58
5,84
6,85
7,8
7,9
7,10
7,11
7,12
8,41
9,41
10,84
11,28
12,13
12,14
12,15
12,16
12,17
13,41
14,41
15,41
16,28
17,18
17,19
17,20
17,21
17,22
17,23
18,58
19,28
20,28
21,28
22,85
23,24
23,25
23,26
23,27
23,28
23,29
24,41
25,41
26,41
27,58
28,32
28,33
28,34
28,35
28,36
28,37
28,38
28,39
28,40
29,30
29,31
29,40
30,41
31,58
32,43
32,44
33,41
33,45
34,43
34,71
34,77
34,86
35,44
35,45
36,81
36,82
37,45
38,59
39,42
39,44
39,45
39,59
40,41
40,42
40,43
40,45
41,46
41,47
41,48
41,49
41,50
41,51
41,52
41,53
41,54
41,55
41,56
41,57
42,84
43,85
44,57
44,60
45,57
45,70
46,58
47,71
47,75
48,60
49,58
50,58
50,59
50,60
51,58
52,58
53,60
54,72
54,78
54,80
54,82
54,83
55,76
55,77
55,81
57,87
58,61
58,62
58,63
58,64
58,65
58,66
58,67
58,68
58,69
59,70
60,70
61,72
61,74
61,83
62,74
62,77
62,81
63,73
64,71
64,73
65,87
66,71
66,81
67,79
68,79
69,73
70,71
70,72
70,73
71,84
72,85
73,74
73,75
74,84
75,76
75,77
75,78
75,79
76,84
77,84
78,85
79,80
79,81
79,82
79,83
80,84
81,85
82,85
83,84
83,86
83,87
84,88
84,89
84,90
84,91
84,92
84,93
84,94
84,95
85,96
85,97
85,98
85,99
91,100
94,100
96,100

<end>
